nNurses = 199;
nHours = 32;
minHours = 5;
maxHours = 10;
maxConsec = 6;
maxPresence = 28;
demand = [26, 23, 20, 21, 17, 14, 16, 12, 14, 9, 9, 13, 18, 17, 18, 19, 20, 23, 23, 27, 29, 30, 28, 24, 29, 33, 36, 34, 33, 35, 33, 31];
